(set-logic QF_NRA)
(set-info :source |Benchmarks generated from hycomp (https://es-static.fbk.eu/tools/hycomp/). BMC instances of non-linear hybrid automata taken from: Alessandro Cimatti, Sergio Mover, Stefano Tonetta, A quantifier-free SMT encoding of non-linear hybrid automata, FMCAD 2012 and Alessandro Cimatti, Sergio Mover, Stefano Tonetta, Quantier-free encoding of invariants for Hybrid Systems, Formal Methods in System Design. This instance solves a BMC problem of depth 2 and uses the quantifier free encoding with equivalences and lemmas encoding. Contacts: Sergio Mover (mover@fbk.eu), Stefano Tonetta (tonettas@fbk.eu), Alessandro Cimatti (cimatti@fbk.eu).|)
(set-info :smt-lib-version 2.0)
(set-info :category "industrial")
(set-info :status unsat)
;; MathSAT API call trace
;; generated on Mon Mar 19 10:36:47 2012
(declare-fun b.counter.1__AT1 () Bool)
(declare-fun b.counter.2__AT1 () Bool)
(declare-fun b.event_is_timed__AT0 () Bool)
(declare-fun b.counter.3__AT1 () Bool)
(declare-fun b.bool_atom__AT0 () Bool)
(declare-fun b.bool_atom__AT2 () Bool)
(declare-fun b.y__AT2 () Real)
(declare-fun b.x__AT0 () Real)
(declare-fun b.time__AT2 () Real)
(declare-fun b.counter.0__AT2 () Bool)
(declare-fun b.delta__AT2 () Real)
(declare-fun b.delta__AT1 () Real)
(declare-fun b.speed_y__AT1 () Real)
(declare-fun b.counter.1__AT2 () Bool)
(declare-fun b.x__AT2 () Real)
(declare-fun b.EVENT.0__AT2 () Bool)
(declare-fun b.time__AT1 () Real)
(declare-fun b.EVENT.0__AT1 () Bool)
(declare-fun b.counter.2__AT2 () Bool)
(declare-fun b.time__AT0 () Real)
(declare-fun b.EVENT.1__AT2 () Bool)
(declare-fun b.EVENT.1__AT1 () Bool)
(declare-fun b.counter.3__AT2 () Bool)
(declare-fun b.delta__AT0 () Real)
(declare-fun b.EVENT.1__AT0 () Bool)
(declare-fun b.speed_y__AT2 () Real)
(declare-fun b.y__AT0 () Real)
(declare-fun b.counter.0__AT0 () Bool)
(declare-fun b.EVENT.0__AT0 () Bool)
(declare-fun b.counter.3__AT0 () Bool)
(declare-fun b.counter.1__AT0 () Bool)
(declare-fun b.event_is_timed__AT1 () Bool)
(declare-fun b.bool_atom__AT1 () Bool)
(declare-fun b.g__AT0 () Real)
(declare-fun b.speed_y__AT0 () Real)
(declare-fun b.x__AT1 () Real)
(declare-fun b.y__AT1 () Real)
(declare-fun b.counter.2__AT0 () Bool)
(declare-fun b.counter.0__AT1 () Bool)
(declare-fun b.event_is_timed__AT2 () Bool)
(assert (let ((.def_76 (* (- 1.0) b.g__AT0)))
(let ((.def_79 (* (/ 1 2) .def_76)))
(let ((.def_91 (* 2.0 .def_79)))
(let ((.def_536 (* .def_91 b.delta__AT2)))
(let ((.def_537 (+ b.speed_y__AT2 .def_536)))
(let ((.def_554 (<= .def_537 0.0 )))
(let ((.def_555 (not .def_554)))
(let ((.def_552 (<= b.speed_y__AT2 0.0 )))
(let ((.def_575 (or .def_552 .def_555)))
(let ((.def_540 (<= 0.0 b.speed_y__AT2)))
(let ((.def_541 (not .def_540)))
(let ((.def_538 (<= 0.0 .def_537)))
(let ((.def_574 (or .def_538 .def_541)))
(let ((.def_576 (and .def_574 .def_575)))
(let ((.def_131 (<= 0.0 b.g__AT0)))
(let ((.def_577 (or .def_131 .def_576)))
(let ((.def_539 (not .def_538)))
(let ((.def_571 (or .def_539 .def_540)))
(let ((.def_553 (not .def_552)))
(let ((.def_570 (or .def_553 .def_554)))
(let ((.def_572 (and .def_570 .def_571)))
(let ((.def_126 (<= b.g__AT0 0.0 )))
(let ((.def_573 (or .def_126 .def_572)))
(let ((.def_578 (and .def_573 .def_577)))
(let ((.def_567 (and .def_552 .def_554)))
(let ((.def_566 (and .def_538 .def_540)))
(let ((.def_568 (or .def_566 .def_567)))
(let ((.def_527 (* b.speed_y__AT2 b.delta__AT2)))
(let ((.def_525 (* b.delta__AT2 b.delta__AT2)))
(let ((.def_526 (* .def_79 .def_525)))
(let ((.def_528 (+ .def_526 .def_527)))
(let ((.def_505 (* (- 1.0) b.x__AT2)))
(let ((.def_506 (* b.x__AT2 .def_505)))
(let ((.def_529 (* (- 1.0) .def_506)))
(let ((.def_532 (+ .def_529 .def_528)))
(let ((.def_533 (+ b.y__AT2 .def_532)))
(let ((.def_546 (<= .def_533 0.0 )))
(let ((.def_560 (not .def_546)))
(let ((.def_544 (<= b.y__AT2 .def_506)))
(let ((.def_561 (or .def_544 .def_560)))
(let ((.def_507 (<= .def_506 b.y__AT2)))
(let ((.def_558 (not .def_507)))
(let ((.def_534 (<= 0.0 .def_533)))
(let ((.def_559 (or .def_534 .def_558)))
(let ((.def_562 (and .def_559 .def_561)))
(let ((.def_556 (or .def_553 .def_555)))
(let ((.def_557 (not .def_556)))
(let ((.def_563 (or .def_557 .def_562)))
(let ((.def_548 (not .def_534)))
(let ((.def_549 (or .def_507 .def_548)))
(let ((.def_545 (not .def_544)))
(let ((.def_547 (or .def_545 .def_546)))
(let ((.def_550 (and .def_547 .def_549)))
(let ((.def_542 (or .def_539 .def_541)))
(let ((.def_543 (not .def_542)))
(let ((.def_551 (or .def_543 .def_550)))
(let ((.def_564 (and .def_551 .def_563)))
(let ((.def_535 (and .def_507 .def_534)))
(let ((.def_565 (and .def_535 .def_564)))
(let ((.def_569 (and .def_565 .def_568)))
(let ((.def_579 (and .def_569 .def_578)))
(let ((.def_68 (<= b.g__AT0 10.0 )))
(let ((.def_67 (<= 8.0 b.g__AT0)))
(let ((.def_69 (and .def_67 .def_68)))
(let ((.def_580 (and .def_69 .def_579)))
(let ((.def_207 (not b.counter.0__AT1)))
(let ((.def_517 (or b.counter.1__AT1 .def_207)))
(let ((.def_518 (or b.counter.2__AT1 .def_517)))
(let ((.def_197 (not b.counter.1__AT1)))
(let ((.def_512 (and .def_197 .def_207)))
(let ((.def_202 (not b.counter.2__AT1)))
(let ((.def_516 (or .def_202 .def_512)))
(let ((.def_519 (and .def_516 .def_518)))
(let ((.def_520 (or b.counter.3__AT1 .def_519)))
(let ((.def_513 (or b.counter.2__AT1 .def_512)))
(let ((.def_511 (or .def_197 .def_202)))
(let ((.def_514 (and .def_511 .def_513)))
(let ((.def_216 (not b.counter.3__AT1)))
(let ((.def_515 (or .def_216 .def_514)))
(let ((.def_521 (and .def_515 .def_520)))
(let ((.def_508 (and .def_69 .def_507)))
(let ((.def_502 (not b.EVENT.0__AT2)))
(let ((.def_500 (not b.EVENT.1__AT2)))
(let ((.def_503 (or .def_500 .def_502)))
(let ((.def_9 (not b.counter.0__AT2)))
(let ((.def_6 (not b.counter.1__AT2)))
(let ((.def_493 (or .def_6 .def_9)))
(let ((.def_497 (or b.counter.3__AT2 .def_493)))
(let ((.def_494 (or b.counter.2__AT2 .def_493)))
(let ((.def_4 (not b.counter.2__AT2)))
(let ((.def_492 (or .def_4 .def_9)))
(let ((.def_495 (and .def_492 .def_494)))
(let ((.def_14 (not b.counter.3__AT2)))
(let ((.def_496 (or .def_14 .def_495)))
(let ((.def_498 (and .def_496 .def_497)))
(let ((.def_504 (and .def_498 .def_503)))
(let ((.def_509 (and .def_504 .def_508)))
(let ((.def_487 (<= 0.0 b.delta__AT1)))
(let ((.def_286 (not b.EVENT.0__AT1)))
(let ((.def_284 (not b.EVENT.1__AT1)))
(let ((.def_365 (and .def_284 .def_286)))
(let ((.def_367 (not .def_365)))
(let ((.def_488 (or .def_367 .def_487)))
(let ((.def_489 (or b.EVENT.1__AT1 .def_488)))
(let ((.def_402 (= b.bool_atom__AT1 b.bool_atom__AT2)))
(let ((.def_398 (= b.counter.0__AT2 b.counter.0__AT1)))
(let ((.def_396 (= b.counter.1__AT2 b.counter.1__AT1)))
(let ((.def_394 (= b.counter.2__AT2 b.counter.2__AT1)))
(let ((.def_393 (= b.counter.3__AT2 b.counter.3__AT1)))
(let ((.def_395 (and .def_393 .def_394)))
(let ((.def_397 (and .def_395 .def_396)))
(let ((.def_399 (and .def_397 .def_398)))
(let ((.def_483 (and .def_399 .def_402)))
(let ((.def_484 (or .def_367 .def_483)))
(let ((.def_485 (or b.EVENT.1__AT1 .def_484)))
(let ((.def_472 (* .def_76 b.delta__AT1)))
(let ((.def_473 (* (- 1.0) b.speed_y__AT2)))
(let ((.def_476 (+ .def_473 .def_472)))
(let ((.def_477 (+ b.speed_y__AT1 .def_476)))
(let ((.def_478 (= .def_477 0.0 )))
(let ((.def_463 (* (- 1.0) b.y__AT2)))
(let ((.def_310 (* b.speed_y__AT1 b.delta__AT1)))
(let ((.def_467 (+ .def_310 .def_463)))
(let ((.def_308 (* b.delta__AT1 b.delta__AT1)))
(let ((.def_309 (* .def_79 .def_308)))
(let ((.def_468 (+ .def_309 .def_467)))
(let ((.def_469 (+ b.y__AT1 .def_468)))
(let ((.def_470 (= .def_469 0.0 )))
(let ((.def_385 (= b.x__AT1 b.x__AT2)))
(let ((.def_471 (and .def_385 .def_470)))
(let ((.def_479 (and .def_471 .def_478)))
(let ((.def_480 (or .def_367 .def_479)))
(let ((.def_388 (= b.y__AT1 b.y__AT2)))
(let ((.def_458 (and .def_385 .def_388)))
(let ((.def_391 (= b.speed_y__AT1 b.speed_y__AT2)))
(let ((.def_459 (and .def_391 .def_458)))
(let ((.def_455 (= b.delta__AT1 0.0 )))
(let ((.def_456 (and .def_365 .def_455)))
(let ((.def_457 (not .def_456)))
(let ((.def_460 (or .def_457 .def_459)))
(let ((.def_461 (or b.EVENT.1__AT1 .def_460)))
(let ((.def_448 (and .def_391 .def_399)))
(let ((.def_449 (or b.bool_atom__AT1 .def_448)))
(let ((.def_424 (or .def_9 b.counter.0__AT1)))
(let ((.def_423 (or b.counter.0__AT2 .def_207)))
(let ((.def_425 (and .def_423 .def_424)))
(let ((.def_426 (and .def_6 .def_425)))
(let ((.def_427 (or b.counter.1__AT1 .def_426)))
(let ((.def_422 (or b.counter.1__AT2 .def_197)))
(let ((.def_428 (and .def_422 .def_427)))
(let ((.def_439 (and .def_4 .def_428)))
(let ((.def_440 (or b.counter.2__AT1 .def_439)))
(let ((.def_434 (and .def_6 .def_207)))
(let ((.def_435 (or b.counter.1__AT1 .def_434)))
(let ((.def_436 (and .def_422 .def_435)))
(let ((.def_437 (and b.counter.2__AT2 .def_436)))
(let ((.def_438 (or .def_202 .def_437)))
(let ((.def_441 (and .def_438 .def_440)))
(let ((.def_442 (and b.counter.3__AT2 .def_441)))
(let ((.def_443 (or b.counter.3__AT1 .def_442)))
(let ((.def_429 (and b.counter.2__AT2 .def_428)))
(let ((.def_430 (or b.counter.2__AT1 .def_429)))
(let ((.def_418 (or b.counter.1__AT2 b.counter.1__AT1)))
(let ((.def_416 (and .def_6 b.counter.0__AT2)))
(let ((.def_417 (or .def_197 .def_416)))
(let ((.def_419 (and .def_417 .def_418)))
(let ((.def_420 (and .def_4 .def_419)))
(let ((.def_421 (or .def_202 .def_420)))
(let ((.def_431 (and .def_421 .def_430)))
(let ((.def_432 (and .def_14 .def_431)))
(let ((.def_433 (or .def_216 .def_432)))
(let ((.def_444 (and .def_433 .def_443)))
(let ((.def_413 (* b.speed_y__AT2 b.speed_y__AT2)))
(let ((.def_193 (* b.speed_y__AT1 b.speed_y__AT1)))
(let ((.def_414 (= .def_193 .def_413)))
(let ((.def_411 (+ b.speed_y__AT1 b.speed_y__AT2)))
(let ((.def_412 (= .def_411 0.0 )))
(let ((.def_415 (and .def_412 .def_414)))
(let ((.def_445 (and .def_415 .def_444)))
(let ((.def_410 (not b.bool_atom__AT1)))
(let ((.def_446 (or .def_410 .def_445)))
(let ((.def_289 (* (- 1.0) b.x__AT1)))
(let ((.def_290 (* b.x__AT1 .def_289)))
(let ((.def_407 (= b.y__AT1 .def_290)))
(let ((.def_323 (<= 0.0 b.speed_y__AT1)))
(let ((.def_324 (not .def_323)))
(let ((.def_408 (and .def_324 .def_407)))
(let ((.def_409 (= b.bool_atom__AT1 .def_408)))
(let ((.def_447 (and .def_409 .def_446)))
(let ((.def_450 (and .def_447 .def_449)))
(let ((.def_451 (and .def_385 .def_450)))
(let ((.def_452 (and .def_388 .def_451)))
(let ((.def_453 (or .def_365 .def_452)))
(let ((.def_454 (or b.EVENT.1__AT1 .def_453)))
(let ((.def_462 (and .def_454 .def_461)))
(let ((.def_481 (and .def_462 .def_480)))
(let ((.def_372 (= b.time__AT1 b.time__AT2)))
(let ((.def_386 (and .def_372 .def_385)))
(let ((.def_389 (and .def_386 .def_388)))
(let ((.def_392 (and .def_389 .def_391)))
(let ((.def_400 (and .def_392 .def_399)))
(let ((.def_403 (and .def_400 .def_402)))
(let ((.def_404 (or .def_284 .def_403)))
(let ((.def_375 (* (- 1.0) b.time__AT2)))
(let ((.def_378 (+ b.delta__AT1 .def_375)))
(let ((.def_379 (+ b.time__AT1 .def_378)))
(let ((.def_380 (= .def_379 0.0 )))
(let ((.def_381 (or .def_367 .def_380)))
(let ((.def_382 (or b.EVENT.1__AT1 .def_381)))
(let ((.def_373 (or .def_365 .def_372)))
(let ((.def_374 (or b.EVENT.1__AT1 .def_373)))
(let ((.def_383 (and .def_374 .def_382)))
(let ((.def_405 (and .def_383 .def_404)))
(let ((.def_369 (= .def_367 b.event_is_timed__AT2)))
(let ((.def_366 (= b.event_is_timed__AT1 .def_365)))
(let ((.def_370 (and .def_366 .def_369)))
(let ((.def_406 (and .def_370 .def_405)))
(let ((.def_482 (and .def_406 .def_481)))
(let ((.def_486 (and .def_482 .def_485)))
(let ((.def_490 (and .def_486 .def_489)))
(let ((.def_491 (and .def_284 .def_490)))
(let ((.def_510 (and .def_491 .def_509)))
(let ((.def_522 (and .def_510 .def_521)))
(let ((.def_319 (* .def_91 b.delta__AT1)))
(let ((.def_320 (+ b.speed_y__AT1 .def_319)))
(let ((.def_337 (<= .def_320 0.0 )))
(let ((.def_338 (not .def_337)))
(let ((.def_335 (<= b.speed_y__AT1 0.0 )))
(let ((.def_358 (or .def_335 .def_338)))
(let ((.def_321 (<= 0.0 .def_320)))
(let ((.def_357 (or .def_321 .def_324)))
(let ((.def_359 (and .def_357 .def_358)))
(let ((.def_360 (or .def_131 .def_359)))
(let ((.def_322 (not .def_321)))
(let ((.def_354 (or .def_322 .def_323)))
(let ((.def_336 (not .def_335)))
(let ((.def_353 (or .def_336 .def_337)))
(let ((.def_355 (and .def_353 .def_354)))
(let ((.def_356 (or .def_126 .def_355)))
(let ((.def_361 (and .def_356 .def_360)))
(let ((.def_350 (and .def_335 .def_337)))
(let ((.def_349 (and .def_321 .def_323)))
(let ((.def_351 (or .def_349 .def_350)))
(let ((.def_311 (+ .def_309 .def_310)))
(let ((.def_312 (* (- 1.0) .def_290)))
(let ((.def_315 (+ .def_312 .def_311)))
(let ((.def_316 (+ b.y__AT1 .def_315)))
(let ((.def_329 (<= .def_316 0.0 )))
(let ((.def_343 (not .def_329)))
(let ((.def_327 (<= b.y__AT1 .def_290)))
(let ((.def_344 (or .def_327 .def_343)))
(let ((.def_291 (<= .def_290 b.y__AT1)))
(let ((.def_341 (not .def_291)))
(let ((.def_317 (<= 0.0 .def_316)))
(let ((.def_342 (or .def_317 .def_341)))
(let ((.def_345 (and .def_342 .def_344)))
(let ((.def_339 (or .def_336 .def_338)))
(let ((.def_340 (not .def_339)))
(let ((.def_346 (or .def_340 .def_345)))
(let ((.def_331 (not .def_317)))
(let ((.def_332 (or .def_291 .def_331)))
(let ((.def_328 (not .def_327)))
(let ((.def_330 (or .def_328 .def_329)))
(let ((.def_333 (and .def_330 .def_332)))
(let ((.def_325 (or .def_322 .def_324)))
(let ((.def_326 (not .def_325)))
(let ((.def_334 (or .def_326 .def_333)))
(let ((.def_347 (and .def_334 .def_346)))
(let ((.def_318 (and .def_291 .def_317)))
(let ((.def_348 (and .def_318 .def_347)))
(let ((.def_352 (and .def_348 .def_351)))
(let ((.def_362 (and .def_352 .def_361)))
(let ((.def_363 (and .def_69 .def_362)))
(let ((.def_38 (not b.counter.0__AT0)))
(let ((.def_300 (or b.counter.1__AT0 .def_38)))
(let ((.def_301 (or b.counter.2__AT0 .def_300)))
(let ((.def_41 (not b.counter.2__AT0)))
(let ((.def_36 (not b.counter.1__AT0)))
(let ((.def_39 (and .def_36 .def_38)))
(let ((.def_299 (or .def_39 .def_41)))
(let ((.def_302 (and .def_299 .def_301)))
(let ((.def_303 (or b.counter.3__AT0 .def_302)))
(let ((.def_296 (or .def_39 b.counter.2__AT0)))
(let ((.def_295 (or .def_36 .def_41)))
(let ((.def_297 (and .def_295 .def_296)))
(let ((.def_44 (not b.counter.3__AT0)))
(let ((.def_298 (or .def_44 .def_297)))
(let ((.def_304 (and .def_298 .def_303)))
(let ((.def_292 (and .def_69 .def_291)))
(let ((.def_287 (or .def_284 .def_286)))
(let ((.def_277 (or .def_197 .def_207)))
(let ((.def_281 (or b.counter.3__AT1 .def_277)))
(let ((.def_278 (or b.counter.2__AT1 .def_277)))
(let ((.def_276 (or .def_202 .def_207)))
(let ((.def_279 (and .def_276 .def_278)))
(let ((.def_280 (or .def_216 .def_279)))
(let ((.def_282 (and .def_280 .def_281)))
(let ((.def_288 (and .def_282 .def_287)))
(let ((.def_293 (and .def_288 .def_292)))
(let ((.def_271 (<= 0.0 b.delta__AT0)))
(let ((.def_57 (not b.EVENT.0__AT0)))
(let ((.def_55 (not b.EVENT.1__AT0)))
(let ((.def_140 (and .def_55 .def_57)))
(let ((.def_142 (not .def_140)))
(let ((.def_272 (or .def_142 .def_271)))
(let ((.def_273 (or b.EVENT.1__AT0 .def_272)))
(let ((.def_182 (= b.bool_atom__AT0 b.bool_atom__AT1)))
(let ((.def_177 (= b.counter.0__AT0 b.counter.0__AT1)))
(let ((.def_174 (= b.counter.1__AT0 b.counter.1__AT1)))
(let ((.def_171 (= b.counter.2__AT0 b.counter.2__AT1)))
(let ((.def_169 (= b.counter.3__AT0 b.counter.3__AT1)))
(let ((.def_172 (and .def_169 .def_171)))
(let ((.def_175 (and .def_172 .def_174)))
(let ((.def_178 (and .def_175 .def_177)))
(let ((.def_267 (and .def_178 .def_182)))
(let ((.def_268 (or .def_142 .def_267)))
(let ((.def_269 (or b.EVENT.1__AT0 .def_268)))
(let ((.def_256 (* b.delta__AT0 .def_76)))
(let ((.def_257 (* (- 1.0) b.speed_y__AT1)))
(let ((.def_260 (+ .def_257 .def_256)))
(let ((.def_261 (+ b.speed_y__AT0 .def_260)))
(let ((.def_262 (= .def_261 0.0 )))
(let ((.def_248 (* (- 1.0) b.y__AT1)))
(let ((.def_82 (* b.delta__AT0 b.speed_y__AT0)))
(let ((.def_251 (+ .def_82 .def_248)))
(let ((.def_75 (* b.delta__AT0 b.delta__AT0)))
(let ((.def_80 (* .def_75 .def_79)))
(let ((.def_252 (+ .def_80 .def_251)))
(let ((.def_253 (+ b.y__AT0 .def_252)))
(let ((.def_254 (= .def_253 0.0 )))
(let ((.def_160 (= b.x__AT0 b.x__AT1)))
(let ((.def_255 (and .def_160 .def_254)))
(let ((.def_263 (and .def_255 .def_262)))
(let ((.def_264 (or .def_142 .def_263)))
(let ((.def_163 (= b.y__AT0 b.y__AT1)))
(let ((.def_243 (and .def_160 .def_163)))
(let ((.def_166 (= b.speed_y__AT0 b.speed_y__AT1)))
(let ((.def_244 (and .def_166 .def_243)))
(let ((.def_240 (= b.delta__AT0 0.0 )))
(let ((.def_241 (and .def_140 .def_240)))
(let ((.def_242 (not .def_241)))
(let ((.def_245 (or .def_242 .def_244)))
(let ((.def_246 (or b.EVENT.1__AT0 .def_245)))
(let ((.def_233 (and .def_166 .def_178)))
(let ((.def_234 (or b.bool_atom__AT0 .def_233)))
(let ((.def_208 (or b.counter.0__AT0 .def_207)))
(let ((.def_206 (or .def_38 b.counter.0__AT1)))
(let ((.def_209 (and .def_206 .def_208)))
(let ((.def_210 (and .def_197 .def_209)))
(let ((.def_211 (or b.counter.1__AT0 .def_210)))
(let ((.def_205 (or .def_36 b.counter.1__AT1)))
(let ((.def_212 (and .def_205 .def_211)))
(let ((.def_224 (and .def_202 .def_212)))
(let ((.def_225 (or b.counter.2__AT0 .def_224)))
(let ((.def_219 (and .def_38 .def_197)))
(let ((.def_220 (or b.counter.1__AT0 .def_219)))
(let ((.def_221 (and .def_205 .def_220)))
(let ((.def_222 (and b.counter.2__AT1 .def_221)))
(let ((.def_223 (or .def_41 .def_222)))
(let ((.def_226 (and .def_223 .def_225)))
(let ((.def_227 (and b.counter.3__AT1 .def_226)))
(let ((.def_228 (or b.counter.3__AT0 .def_227)))
(let ((.def_213 (and b.counter.2__AT1 .def_212)))
(let ((.def_214 (or b.counter.2__AT0 .def_213)))
(let ((.def_200 (or b.counter.1__AT0 b.counter.1__AT1)))
(let ((.def_198 (and b.counter.0__AT1 .def_197)))
(let ((.def_199 (or .def_36 .def_198)))
(let ((.def_201 (and .def_199 .def_200)))
(let ((.def_203 (and .def_201 .def_202)))
(let ((.def_204 (or .def_41 .def_203)))
(let ((.def_215 (and .def_204 .def_214)))
(let ((.def_217 (and .def_215 .def_216)))
(let ((.def_218 (or .def_44 .def_217)))
(let ((.def_229 (and .def_218 .def_228)))
(let ((.def_194 (* b.speed_y__AT0 b.speed_y__AT0)))
(let ((.def_195 (= .def_193 .def_194)))
(let ((.def_191 (+ b.speed_y__AT0 b.speed_y__AT1)))
(let ((.def_192 (= .def_191 0.0 )))
(let ((.def_196 (and .def_192 .def_195)))
(let ((.def_230 (and .def_196 .def_229)))
(let ((.def_190 (not b.bool_atom__AT0)))
(let ((.def_231 (or .def_190 .def_230)))
(let ((.def_62 (* (- 1.0) b.x__AT0)))
(let ((.def_63 (* b.x__AT0 .def_62)))
(let ((.def_187 (= b.y__AT0 .def_63)))
(let ((.def_96 (<= 0.0 b.speed_y__AT0)))
(let ((.def_97 (not .def_96)))
(let ((.def_188 (and .def_97 .def_187)))
(let ((.def_189 (= b.bool_atom__AT0 .def_188)))
(let ((.def_232 (and .def_189 .def_231)))
(let ((.def_235 (and .def_232 .def_234)))
(let ((.def_236 (and .def_160 .def_235)))
(let ((.def_237 (and .def_163 .def_236)))
(let ((.def_238 (or .def_140 .def_237)))
(let ((.def_239 (or b.EVENT.1__AT0 .def_238)))
(let ((.def_247 (and .def_239 .def_246)))
(let ((.def_265 (and .def_247 .def_264)))
(let ((.def_147 (= b.time__AT0 b.time__AT1)))
(let ((.def_161 (and .def_147 .def_160)))
(let ((.def_164 (and .def_161 .def_163)))
(let ((.def_167 (and .def_164 .def_166)))
(let ((.def_179 (and .def_167 .def_178)))
(let ((.def_183 (and .def_179 .def_182)))
(let ((.def_184 (or .def_55 .def_183)))
(let ((.def_150 (* (- 1.0) b.time__AT1)))
(let ((.def_153 (+ b.delta__AT0 .def_150)))
(let ((.def_154 (+ b.time__AT0 .def_153)))
(let ((.def_155 (= .def_154 0.0 )))
(let ((.def_156 (or .def_142 .def_155)))
(let ((.def_157 (or b.EVENT.1__AT0 .def_156)))
(let ((.def_148 (or .def_140 .def_147)))
(let ((.def_149 (or b.EVENT.1__AT0 .def_148)))
(let ((.def_158 (and .def_149 .def_157)))
(let ((.def_185 (and .def_158 .def_184)))
(let ((.def_144 (= .def_142 b.event_is_timed__AT1)))
(let ((.def_141 (= b.event_is_timed__AT0 .def_140)))
(let ((.def_145 (and .def_141 .def_144)))
(let ((.def_186 (and .def_145 .def_185)))
(let ((.def_266 (and .def_186 .def_265)))
(let ((.def_270 (and .def_266 .def_269)))
(let ((.def_274 (and .def_270 .def_273)))
(let ((.def_275 (and .def_55 .def_274)))
(let ((.def_294 (and .def_275 .def_293)))
(let ((.def_305 (and .def_294 .def_304)))
(let ((.def_92 (* b.delta__AT0 .def_91)))
(let ((.def_93 (+ b.speed_y__AT0 .def_92)))
(let ((.def_110 (<= .def_93 0.0 )))
(let ((.def_111 (not .def_110)))
(let ((.def_108 (<= b.speed_y__AT0 0.0 )))
(let ((.def_133 (or .def_108 .def_111)))
(let ((.def_94 (<= 0.0 .def_93)))
(let ((.def_132 (or .def_94 .def_97)))
(let ((.def_134 (and .def_132 .def_133)))
(let ((.def_135 (or .def_131 .def_134)))
(let ((.def_95 (not .def_94)))
(let ((.def_128 (or .def_95 .def_96)))
(let ((.def_109 (not .def_108)))
(let ((.def_127 (or .def_109 .def_110)))
(let ((.def_129 (and .def_127 .def_128)))
(let ((.def_130 (or .def_126 .def_129)))
(let ((.def_136 (and .def_130 .def_135)))
(let ((.def_123 (and .def_108 .def_110)))
(let ((.def_122 (and .def_94 .def_96)))
(let ((.def_124 (or .def_122 .def_123)))
(let ((.def_83 (+ .def_80 .def_82)))
(let ((.def_84 (* (- 1.0) .def_63)))
(let ((.def_87 (+ .def_84 .def_83)))
(let ((.def_88 (+ b.y__AT0 .def_87)))
(let ((.def_102 (<= .def_88 0.0 )))
(let ((.def_116 (not .def_102)))
(let ((.def_100 (<= b.y__AT0 .def_63)))
(let ((.def_117 (or .def_100 .def_116)))
(let ((.def_64 (<= .def_63 b.y__AT0)))
(let ((.def_114 (not .def_64)))
(let ((.def_89 (<= 0.0 .def_88)))
(let ((.def_115 (or .def_89 .def_114)))
(let ((.def_118 (and .def_115 .def_117)))
(let ((.def_112 (or .def_109 .def_111)))
(let ((.def_113 (not .def_112)))
(let ((.def_119 (or .def_113 .def_118)))
(let ((.def_104 (not .def_89)))
(let ((.def_105 (or .def_64 .def_104)))
(let ((.def_101 (not .def_100)))
(let ((.def_103 (or .def_101 .def_102)))
(let ((.def_106 (and .def_103 .def_105)))
(let ((.def_98 (or .def_95 .def_97)))
(let ((.def_99 (not .def_98)))
(let ((.def_107 (or .def_99 .def_106)))
(let ((.def_120 (and .def_107 .def_119)))
(let ((.def_90 (and .def_64 .def_89)))
(let ((.def_121 (and .def_90 .def_120)))
(let ((.def_125 (and .def_121 .def_124)))
(let ((.def_137 (and .def_125 .def_136)))
(let ((.def_138 (and .def_69 .def_137)))
(let ((.def_70 (and .def_64 .def_69)))
(let ((.def_58 (or .def_55 .def_57)))
(let ((.def_48 (or .def_36 .def_38)))
(let ((.def_52 (or b.counter.3__AT0 .def_48)))
(let ((.def_49 (or b.counter.2__AT0 .def_48)))
(let ((.def_47 (or .def_38 .def_41)))
(let ((.def_50 (and .def_47 .def_49)))
(let ((.def_51 (or .def_44 .def_50)))
(let ((.def_53 (and .def_51 .def_52)))
(let ((.def_59 (and .def_53 .def_58)))
(let ((.def_71 (and .def_59 .def_70)))
(let ((.def_42 (and .def_39 .def_41)))
(let ((.def_45 (and .def_42 .def_44)))
(let ((.def_33 (= b.y__AT0 10.0 )))
(let ((.def_29 (= b.x__AT0 0.0 )))
(let ((.def_25 (= b.time__AT0 0.0 )))
(let ((.def_27 (and .def_25 b.event_is_timed__AT0)))
(let ((.def_30 (and .def_27 .def_29)))
(let ((.def_34 (and .def_30 .def_33)))
(let ((.def_46 (and .def_34 .def_45)))
(let ((.def_72 (and .def_46 .def_71)))
(let ((.def_17 (or b.counter.1__AT2 .def_9)))
(let ((.def_18 (or b.counter.2__AT2 .def_17)))
(let ((.def_10 (and .def_6 .def_9)))
(let ((.def_16 (or .def_4 .def_10)))
(let ((.def_19 (and .def_16 .def_18)))
(let ((.def_20 (or b.counter.3__AT2 .def_19)))
(let ((.def_11 (or b.counter.2__AT2 .def_10)))
(let ((.def_7 (or .def_4 .def_6)))
(let ((.def_12 (and .def_7 .def_11)))
(let ((.def_15 (or .def_12 .def_14)))
(let ((.def_21 (and .def_15 .def_20)))
(let ((.def_22 (not .def_21)))
(let ((.def_73 (and .def_22 .def_72)))
(let ((.def_139 (and .def_73 .def_138)))
(let ((.def_306 (and .def_139 .def_305)))
(let ((.def_364 (and .def_306 .def_363)))
(let ((.def_523 (and .def_364 .def_522)))
(let ((.def_581 (and .def_523 .def_580)))
.def_581))))))))))))))))))))))))))))))))))))))))))))))))))))))))))))))))))))))))))))))))))))))))))))))))))))))))))))))))))))))))))))))))))))))))))))))))))))))))))))))))))))))))))))))))))))))))))))))))))))))))))))))))))))))))))))))))))))))))))))))))))))))))))))))))))))))))))))))))))))))))))))))))))))))))))))))))))))))))))))))))))))))))))))))))))))))))))))))))))))))))))))))))))))))))))))))))))))))))))))))))))))))))))))))))))))))))))))))))))))))))))))))))))))))))))))))))))))))))))))))))))))))))))))))))))))))))))))))))))
(check-sat)
(exit)
